(set-option :incremental false)
(set-logic ALL)
(declare-const BAV1 Bool)
(declare-const BAV2 Bool)
(declare-sort U 0)
(declare-fun p4 (U) Bool)
(declare-fun c_4 () U)
(declare-fun c7 () U)
(declare-fun c_0 () U)
(assert (= BAV1 (and (not (p4 c_0)) (p4 c7) (= c_0 c7))))
(assert (= BAV2 (= c_0 c7)))
(check-sat-assuming ((and (not (p4 c_0)) (p4 c7) (= c_0 c7))))
(get-model)